StudentsNr = 10;
InstructorsNr = 47;
DaysNr = 1;
SlotsPerDay = 15;
AvailabilitySlotsLenght = 3;
RoomNr = 1;
ProgrammNr = 1;
DegreeNr = 2;
RolesNr = 4;
CoursesNr = 3;
InstructorsProgramm = [{1}, {1}, {1}, {1}, {1}, {1}, {1}, {1}, {1}, {1}, {1}, {1}, {1}, {1}, {1}, {1}, {1}, {1}, {1}, {1}, {1}, {1}, {1}, {1}, {1}, {1}, {1}, {1}, {1}, {1}, {1}, {1}, {1}, {1}, {1}, {1}, {1}, {1}, {1}, {1}, {1}, {1}, {1}, {1}, {1}, {1}, {1}];
InstructorRolesPerProgramm = [|{1, 4, 5, 8, 9, 12, 14, 16, 17, 19, 21, 24, 28, 29, 30, 33, 34, 35, 41, 45}, {3, 7, 11, 13, 15, 17, 22, 23, 25, 26, 38, 39, 41, 42, 43, 44, 46, 47}, {1, 2, 4, 8, 9, 11, 13, 14, 15, 16, 17, 21, 22, 23, 25, 26, 27, 28, 32, 34, 35, 37, 38, 39, 42, 45, 46, 47}, {2, 3, 4, 8, 9, 10, 11, 19, 20, 25, 26, 27, 29, 31, 34, 39, 40, 43, 47}|];
InstructorsAvailability = [|1, 1, 1, 1, 1, |1, 1, 1, 1, 1, |1, 1, 1, 1, 1, |0, 1, 1, 1, 1, |1, 1, 1, 1, 1, |1, 1, 1, 1, 1, |1, 1, 0, 1, 0, |1, 1, 0, 1, 1, |0, 0, 0, 1, 1, |0, 1, 0, 0, 0, |0, 1, 1, 1, 1, |1, 1, 1, 1, 1, |0, 1, 1, 1, 1, |1, 1, 1, 1, 1, |0, 1, 1, 1, 1, |0, 0, 1, 1, 1, |1, 1, 1, 1, 1, |1, 1, 1, 0, 1, |0, 0, 1, 1, 1, |0, 1, 0, 0, 1, |0, 1, 1, 1, 1, |0, 1, 0, 1, 1, |0, 1, 1, 1, 1, |0, 1, 1, 1, 1, |1, 1, 0, 1, 1, |1, 1, 1, 1, 1, |1, 1, 1, 1, 1, |1, 0, 1, 0, 0, |0, 1, 1, 1, 1, |1, 0, 1, 1, 1, |0, 1, 1, 1, 1, |1, 1, 1, 1, 1, |0, 0, 0, 1, 1, |0, 1, 1, 1, 0, |1, 1, 1, 1, 1, |1, 1, 1, 1, 1, |1, 1, 0, 0, 1, |0, 1, 1, 1, 0, |1, 0, 1, 1, 0, |1, 1, 1, 1, 1, |1, 0, 0, 0, 1, |0, 0, 0, 0, 1, |1, 1, 1, 0, 0, |1, 1, 1, 0, 0, |0, 1, 0, 1, 1, |1, 1, 1, 1, 1, |0, 1, 1, 1, 1|];
StudentsProgramm = [1, 1, 1, 1, 1, 1, 1, 1, 1, 1];
StudentsDegree = [2, 1, 2, 1, 1, 2, 2, 2, 1, 1];
StudentsSupervisorId = [29, 23, 30, 23, 7, 15, 9, 10, 18, 31];
StudentsCourseIds = [{1}, {2, 3}, {2}, {1, 3}, {1, 3}, {1}, {1}, {1}, {1, 3}, {2, 3}];
StudentsAvailability = [|0, 1, 1, 1, 1, |0, 1, 1, 0, 0, |0, 0, 1, 1, 1, |1, 1, 1, 1, 1, |0, 1, 1, 1, 1, |0, 0, 1, 1, 1, |1, 1, 1, 1, 1, |1, 1, 1, 1, 1, |0, 1, 1, 1, 1, |1, 1, 1, 1, 1|];
TheoryticalMinCard = [0, 0, 0, 0, 0, 0, 0, 0, 1, 0];
CoursesInstructorIds = [{4, 9, 10, 28, 29, 40, 42, 44, 46}, {2, 8, 13, 21, 23, 25, 27, 28, 29, 31, 36, 37, 39, 42, 44, 45}, {1, 2, 4, 5, 6, 7, 8, 9, 12, 14, 21, 22, 23, 24, 25, 26, 27, 29, 33, 36, 38, 39, 41, 43, 45, 47}];
RolesDemands = [11, 12, 20, 5];
RolesContinuity = [3];
ExamLen = [2, 2, 2, 2, 2, 2, 2, 2, 2, 2];
LunchTsMinLen = 2;
LunchStarts = [3..10];
SupervisorAvailable = 5;
OptimalLunchLenght = [1, 2];
OptimalStartTs = [1, 1];
OptimalFinishTs = [1, 14];
MinimizeRooms = 200;
RolesSoftContinuity = [|1, 2, 3, 4|1, 4, 4, 1|];
SameDegreeInRoom = 0;
Mergeability = 1;
